certificates/rado_a7_c263_N38.cnf
c Rad2 upper bound instance: x1 + 7*x2 - x3 = 263, interval [1,38]
p cnf 38 268
1 4 38 0
-1 -4 -38 0
2 5 38 0
-2 -5 -38 0
3 6 38 0
-3 -6 -38 0
4 7 38 0
-4 -7 -38 0
1 5 37 0
-1 -5 -37 0
5 8 38 0
-5 -8 -38 0
2 6 37 0
-2 -6 -37 0
6 9 38 0
-6 -9 -38 0
3 7 37 0
-3 -7 -37 0
7 10 38 0
-7 -10 -38 0
4 8 37 0
-4 -8 -37 0
8 11 38 0
-8 -11 -38 0
5 9 37 0
-5 -9 -37 0
9 12 38 0
-9 -12 -38 0
6 10 37 0
-6 -10 -37 0
10 13 38 0
-10 -13 -38 0
7 11 37 0
-7 -11 -37 0
11 14 38 0
-11 -14 -38 0
1 12 36 0
-1 -12 -36 0
8 12 37 0
-8 -12 -37 0
12 15 38 0
-12 -15 -38 0
2 13 36 0
-2 -13 -36 0
9 13 37 0
-9 -13 -37 0
13 16 38 0
-13 -16 -38 0
3 14 36 0
-3 -14 -36 0
10 14 37 0
-10 -14 -37 0
14 17 38 0
-14 -17 -38 0
4 15 36 0
-4 -15 -36 0
11 15 37 0
-11 -15 -37 0
15 18 38 0
-15 -18 -38 0
5 16 36 0
-5 -16 -36 0
12 16 37 0
-12 -16 -37 0
16 19 38 0
-16 -19 -38 0
6 17 36 0
-6 -17 -36 0
13 17 37 0
-13 -17 -37 0
17 20 38 0
-17 -20 -38 0
7 18 36 0
-7 -18 -36 0
14 18 37 0
-14 -18 -37 0
18 21 38 0
-18 -21 -38 0
1 19 35 0
-1 -19 -35 0
8 19 36 0
-8 -19 -36 0
15 19 37 0
-15 -19 -37 0
19 22 38 0
-19 -22 -38 0
2 20 35 0
-2 -20 -35 0
9 20 36 0
-9 -20 -36 0
16 20 37 0
-16 -20 -37 0
20 23 38 0
-20 -23 -38 0
3 21 35 0
-3 -21 -35 0
10 21 36 0
-10 -21 -36 0
17 21 37 0
-17 -21 -37 0
21 24 38 0
-21 -24 -38 0
4 22 35 0
-4 -22 -35 0
11 22 36 0
-11 -22 -36 0
18 22 37 0
-18 -22 -37 0
22 25 38 0
-22 -25 -38 0
5 23 35 0
-5 -23 -35 0
12 23 36 0
-12 -23 -36 0
19 23 37 0
-19 -23 -37 0
23 26 38 0
-23 -26 -38 0
6 24 35 0
-6 -24 -35 0
13 24 36 0
-13 -24 -36 0
20 24 37 0
-20 -24 -37 0
24 27 38 0
-24 -27 -38 0
7 25 35 0
-7 -25 -35 0
14 25 36 0
-14 -25 -36 0
21 25 37 0
-21 -25 -37 0
25 28 38 0
-25 -28 -38 0
1 26 34 0
-1 -26 -34 0
8 26 35 0
-8 -26 -35 0
15 26 36 0
-15 -26 -36 0
22 26 37 0
-22 -26 -37 0
26 29 38 0
-26 -29 -38 0
2 27 34 0
-2 -27 -34 0
9 27 35 0
-9 -27 -35 0
16 27 36 0
-16 -27 -36 0
23 27 37 0
-23 -27 -37 0
27 30 38 0
-27 -30 -38 0
3 28 34 0
-3 -28 -34 0
10 28 35 0
-10 -28 -35 0
17 28 36 0
-17 -28 -36 0
24 28 37 0
-24 -28 -37 0
28 31 38 0
-28 -31 -38 0
4 29 34 0
-4 -29 -34 0
11 29 35 0
-11 -29 -35 0
18 29 36 0
-18 -29 -36 0
25 29 37 0
-25 -29 -37 0
29 32 38 0
-29 -32 -38 0
5 30 34 0
-5 -30 -34 0
12 30 35 0
-12 -30 -35 0
19 30 36 0
-19 -30 -36 0
26 30 37 0
-26 -30 -37 0
30 33 38 0
-30 -33 -38 0
6 31 34 0
-6 -31 -34 0
13 31 35 0
-13 -31 -35 0
20 31 36 0
-20 -31 -36 0
27 31 37 0
-27 -31 -37 0
31 34 38 0
-31 -34 -38 0
7 32 34 0
-7 -32 -34 0
14 32 35 0
-14 -32 -35 0
21 32 36 0
-21 -32 -36 0
28 32 37 0
-28 -32 -37 0
32 35 38 0
-32 -35 -38 0
1 33 0
-1 -33 0
8 33 34 0
-8 -33 -34 0
15 33 35 0
-15 -33 -35 0
22 33 36 0
-22 -33 -36 0
29 33 37 0
-29 -33 -37 0
33 36 38 0
-33 -36 -38 0
2 33 34 0
-2 -33 -34 0
9 34 0
-9 -34 0
16 34 35 0
-16 -34 -35 0
23 34 36 0
-23 -34 -36 0
30 34 37 0
-30 -34 -37 0
34 37 38 0
-34 -37 -38 0
3 33 35 0
-3 -33 -35 0
10 34 35 0
-10 -34 -35 0
17 35 0
-17 -35 0
24 35 36 0
-24 -35 -36 0
31 35 37 0
-31 -35 -37 0
35 38 0
-35 -38 0
4 33 36 0
-4 -33 -36 0
11 34 36 0
-11 -34 -36 0
18 35 36 0
-18 -35 -36 0
25 36 0
-25 -36 0
32 36 37 0
-32 -36 -37 0
5 33 37 0
-5 -33 -37 0
12 34 37 0
-12 -34 -37 0
19 35 37 0
-19 -35 -37 0
26 36 37 0
-26 -36 -37 0
33 37 0
-33 -37 0
6 33 38 0
-6 -33 -38 0
13 34 38 0
-13 -34 -38 0
20 35 38 0
-20 -35 -38 0
27 36 38 0
-27 -36 -38 0
