certificates/rado_a7_c263_N38.drat
-38 0
35 0
-17 0
14 0
20 0
-32 0
-2 0
29 0
5 0
-11 0
-23 0
8 0
26 0
0
